n_res = 4;
rcap = [15, 14, 94, 87];
rtype = [1, 1, 2, 2];
n_tasks = 16;
modes = [ {1}, {2}, {3}, {4}, {5}, {6}, {7}, {8}, {9}, {10}, {11}, {12}, {13}, {14}, {15}, {16} ];
succ = [ {8, 13}, {6, 9}, {4, 5, 10}, {12, 15}, {7, 9, 12}, {7, 11, 16}, {14, 15}, {10}, {11, 13, 15}, {11, 16}, {14}, {13, 16}, {14}, {}, {}, {} ];
n_opt = 16;
dur = [9, 6, 5, 6, 1, 7, 6, 10, 5, 6, 8, 2, 10, 5, 10, 10];
rreq = [| 10,  6,  3,  4,  8,  7,  7,  3,  5,  6,  1,  7,  8,  9, 10,  8
        |  7,  7,  8,  1,  7,  8,  5, 10,  3,  3,  6,  2,  5,  6, 10, 10
        |  6, 10,  3, 10,  3,  7,  7, 10,  1,  3,  9,  4,  9,  2,  7,  3
        |  4,  2,  3,  4,  7,  3,  8,  4,  4,  7,  7,  4,  6,  8,  7,  9 |];
